set CLIENTS := 1 3 4 5 6 8;
#set of  origins
set ORIGIN := 4;

param cost: 1  3  4  5  6  8 :=
          1 00 38 40 70 25 27
          3 38 00 25 60 26 22
          4 40 25 00 36 18 20
          5 70 60 36 00 50 54
          6 25 26 18 50 00 05
          8 27 22 20 54 05 00;


#right hand side at nodes
param a :=
  1  66
  3  80
  4 -237
  5  39
  6  40
  8  12;


param C := 150;
param K := 2;
